f: 10
a
Default variable names x1, x2 ... being created.
Default row names c1, c2 ... being created.
CPXPARAM_TimeLimit                               10800
CPXPARAM_WorkMem                                 10000
Tried aggregator 2 times.
MIP Presolve eliminated 19 rows and 0 columns.
MIP Presolve modified 9 coefficients.
Aggregator did 9 substitutions.
Reduced MIP has 200 rows, 189 columns, and 792 nonzeros.
Reduced MIP has 108 binaries, 0 generals, 0 SOSs, and 0 indicators.
Presolve time = 0.00 sec. (0.72 ticks)
Found incumbent of value 53.333333 after 0.00 sec. (1.16 ticks)
Probing time = 0.00 sec. (0.48 ticks)
Tried aggregator 1 time.
Reduced MIP has 200 rows, 189 columns, and 792 nonzeros.
Reduced MIP has 108 binaries, 0 generals, 0 SOSs, and 0 indicators.
Presolve time = 0.00 sec. (0.52 ticks)
Probing time = 0.00 sec. (0.47 ticks)
Clique table members: 29.
MIP emphasis: balance optimality and feasibility.
MIP search method: dynamic search.
Parallel mode: deterministic, using up to 16 threads.
Root relaxation solution time = 0.00 sec. (0.76 ticks)

        Nodes                                         Cuts/
   Node  Left     Objective  IInf  Best Integer    Best Bound    ItCnt     Gap

*     0+    0                           53.3333      160.0000           200.00%
      0     0      160.0000    27       53.3333      160.0000       80  200.00%
      0     0      160.0000    11       53.3333       Cuts: 4      110  200.00%
*     0+    0                          160.0000      160.0000             0.00%
      0     0        cutoff            160.0000      160.0000      110    0.00%
Elapsed time = 0.06 sec. (8.69 ticks, tree = 0.01 MB, solutions = 2)

Cover cuts applied:  1

Root node processing (before b&c):
  Real time             =    0.06 sec. (8.70 ticks)
Parallel b&c, 16 threads:
  Real time             =    0.00 sec. (0.00 ticks)
  Sync time (average)   =    0.00 sec.
  Wait time (average)   =    0.00 sec.
                          ------------
Total (root+branch&cut) =    0.06 sec. (8.70 ticks)
Premio ótimo: 160



rota 1:

	vertice	tempo	parou
	base	0	nao
	5	1.59351	sim
	6	19.2417	sim
	9	35.435	sim
	4	53.7441	sim
	2	69.3229	sim
	1	86.0371	sim
	7	103.152	sim
	3	119.031	sim
	8	135.377	sim
	base	153.411	nao

vertice		tempos visitado
0		0, 153.411
1		86.0371
2		69.3229
3		119.031
4		53.7441
5		1.59351
6		19.2417
7		103.152
8		135.377
9		35.435

premio:			160
numero de vertices:	10
tempo de protecao(min):	360
velocidade(km/h):	20
tempo de execucao:	1.72958e+09
status:			Optimal
GAP:			0
